61.0 99.0 0
95.0 7.0 14
45.0 87.0 1
15.0 47.0 16
39.0 75.0 23
55.0 23.0 12
29.0 71.0 6
87.0 79.0 5
75.0 63.0 1
65.0 61.0 13
73.0 35.0 20
17.0 35.0 14
39.0 99.0 18
75.0 77.0 7
49.0 37.0 8
85.0 31.0 21
89.0 71.0 8
89.0 43.0 24
79.0 81.0 20
45.0 5.0 19
93.0 69.0 13
49.0 69.0 3
63.0 25.0 26
93.0 33.0 17
39.0 45.0 22
89.0 33.0 8
47.0 77.0 16
29.0 19.0 20
13.0 65.0 12
33.0 9.0 22
63.0 9.0 20
41.0 13.0 12
67.0 75.0 14
41.0 27.0 25
49.0 77.0 17
57.0 81.0 19
45.0 5.0 20
83.0 7.0 15
81.0 61.0 2
57.0 81.0 9
93.0 89.0 10
17.0 13.0 6
89.0 27.0 11
7.0 25.0 21
35.0 35.0 24
